c FILE: i080-211

c SOURCE: From steinlib

c DESCRIPTION: Steinlib instance with 80 nodes and 350 edges.

p edge 80 350
e 1 15
e 1 20
e 1 28
e 1 43
e 1 50
e 1 53
e 1 55
e 1 57
e 1 58
e 1 68
e 1 72
e 2 12
e 2 14
e 2 19
e 2 37
e 2 50
e 2 57
e 2 65
e 2 79
e 3 4
e 3 5
e 3 22
e 3 25
e 3 34
e 3 46
e 3 55
e 3 56
e 3 58
e 3 66
e 3 72
e 3 73
e 3 80
e 4 17
e 4 37
e 4 47
e 4 59
e 4 73
e 4 76
e 5 6
e 5 10
e 5 12
e 5 25
e 5 30
e 5 42
e 5 43
e 5 45
e 5 63
e 5 77
e 6 18
e 6 37
e 6 43
e 6 48
e 6 57
e 6 71
e 6 72
e 6 74
e 6 79
e 7 24
e 7 25
e 7 29
e 7 42
e 7 49
e 7 78
e 7 80
e 8 19
e 8 24
e 8 41
e 8 42
e 8 44
e 8 53
e 9 11
e 9 22
e 9 41
e 9 45
e 9 46
e 9 47
e 9 53
e 9 56
e 10 16
e 10 31
e 10 40
e 10 60
e 10 79
e 11 12
e 11 41
e 11 49
e 11 58
e 12 32
e 12 35
e 12 41
e 12 57
e 12 60
e 12 66
e 12 74
e 12 77
e 13 19
e 13 21
e 13 50
e 13 57
e 13 68
e 13 76
e 14 22
e 14 33
e 14 38
e 14 41
e 14 62
e 14 75
e 14 78
e 15 19
e 15 26
e 15 48
e 15 68
e 15 72
e 16 17
e 16 28
e 16 33
e 16 39
e 16 40
e 16 41
e 16 46
e 16 49
e 16 52
e 16 59
e 16 70
e 16 72
e 16 76
e 16 77
e 16 78
e 17 21
e 17 34
e 17 40
e 17 44
e 17 63
e 17 69
e 17 80
e 18 26
e 18 28
e 18 29
e 18 37
e 18 41
e 18 43
e 18 61
e 18 62
e 18 67
e 19 37
e 19 53
e 19 59
e 19 72
e 20 27
e 20 28
e 20 29
e 20 42
e 20 63
e 20 66
e 20 69
e 20 71
e 20 78
e 20 80
e 21 29
e 21 40
e 21 45
e 21 56
e 21 66
e 21 67
e 21 69
e 22 30
e 22 32
e 22 36
e 22 51
e 22 73
e 23 45
e 23 55
e 23 57
e 23 79
e 24 29
e 24 33
e 24 44
e 24 58
e 24 63
e 24 73
e 24 76
e 24 78
e 25 30
e 25 40
e 25 53
e 25 58
e 26 27
e 26 31
e 26 33
e 26 57
e 26 58
e 26 67
e 26 73
e 26 78
e 27 39
e 27 45
e 27 48
e 27 50
e 28 36
e 28 38
e 28 44
e 28 71
e 29 35
e 29 36
e 29 55
e 29 60
e 29 64
e 30 31
e 30 54
e 30 55
e 30 70
e 30 72
e 31 38
e 31 56
e 31 67
e 31 78
e 32 37
e 32 61
e 32 74
e 33 34
e 33 50
e 33 61
e 33 71
e 34 51
e 34 53
e 34 55
e 34 57
e 34 59
e 34 60
e 34 63
e 34 66
e 34 77
e 35 38
e 35 51
e 35 59
e 35 65
e 35 70
e 36 48
e 36 63
e 36 75
e 37 44
e 37 51
e 37 65
e 38 59
e 38 69
e 38 70
e 38 74
e 39 53
e 39 64
e 39 80
e 40 58
e 40 61
e 40 64
e 40 70
e 40 76
e 41 42
e 41 54
e 41 60
e 41 71
e 41 73
e 41 78
e 41 79
e 42 46
e 42 52
e 42 79
e 43 54
e 43 73
e 44 61
e 44 66
e 45 46
e 45 53
e 45 57
e 45 64
e 45 68
e 45 71
e 45 74
e 45 76
e 46 53
e 46 57
e 46 59
e 46 63
e 46 65
e 46 67
e 47 69
e 47 73
e 47 76
e 48 73
e 49 51
e 49 58
e 49 63
e 49 70
e 49 72
e 50 60
e 50 64
e 50 69
e 50 72
e 50 73
e 50 74
e 51 57
e 51 61
e 51 74
e 52 54
e 52 56
e 52 68
e 52 69
e 52 72
e 53 64
e 53 65
e 53 66
e 53 72
e 53 78
e 53 80
e 54 58
e 54 62
e 54 66
e 54 72
e 54 79
e 55 63
e 55 68
e 55 77
e 56 62
e 56 64
e 56 67
e 56 72
e 57 77
e 58 68
e 58 69
e 58 70
e 59 65
e 59 78
e 60 62
e 60 63
e 61 63
e 61 73
e 62 70
e 62 72
e 62 79
e 63 75
e 63 76
e 63 77
e 65 66
e 65 71
e 65 72
e 66 71
e 67 74
e 69 77
e 70 75
e 71 76
e 72 78
e 76 79
